language ESSENCE' 1.0
$ minion Nodes: 4
$ minion TotalTime: 0.000866
$ minion TimeOut: 0
$ Savile Row TotalTime: 0.129
letting contents_Function1DPartial_tuple1 be [false, false, false;int(1..3)]
letting contents_Function1DPartial_tuple2_MSetOccurrence be [[0, 0;int(1..2)], 
[0, 0;int(1..2)], 
[0, 0;int(1..2)];int(1..3)]
